# Solution for model qis_1000_800_690
# Objective value = 3.0611004633327281e+02
x[0] 1
x[1] 7.5014418333459964e-08
x[2] 0
x[3] 1
x[4] 1
x[5] 1
x[6] 0
x[7] 1
x[8] 0
x[9] 1.0000001002109145e+00
x[10] 0
x[11] 1
x[12] 1
x[13] 0
x[14] 1
x[15] 0
x[16] 0
x[17] 1
x[18] 0
x[19] 1
x[20] 1
x[21] 0
x[22] 1
x[23] 1
x[24] 5.0027584400491209e-08
x[25] 1
x[26] 0
x[27] 1
x[28] 0
x[29] 5.0070222468262818e-08
x[30] 2.3746163264564809e-07
x[31] 1
x[32] 0
x[33] 1
x[34] 0
x[35] 1
x[36] 1.0000000999821481e+00
x[37] 1
x[38] 1
x[39] 1
x[40] 1
x[41] 0
x[42] 0
x[43] 5.0072446216237291e-08
x[44] 1
x[45] 2.5057293158663426e-07
x[46] 9.9999995320802348e-01
x[47] 0
x[48] 1
x[49] 1
x[50] 1
x[51] 1.0000000249872603e+00
x[52] 7.5091212930269984e-08
x[53] 0
x[54] 2.5054301005262952e-07
x[55] 0
x[56] 1
x[57] 1
x[58] 1
x[59] 0
x[60] 9.9999994987469032e-01
x[61] 1
x[62] 0
x[63] 1
x[64] 0
x[65] 0
x[66] 0
x[67] 0
x[68] 0
x[69] 0
x[70] 1
x[71] 1
x[72] 0
x[73] 0
x[74] 1.0020761365957961e-07
x[75] 0
x[76] 0
x[77] 1
x[78] 1
x[79] 0
x[80] 1
x[81] 1
x[82] 1
x[83] 0
x[84] 1
x[85] 0
x[86] 0
x[87] 1
x[88] 9.9999974185994356e-01
x[89] 1
x[90] -2.1729318398410934e-08
x[91] 0
x[92] 1
x[93] 0
x[94] 0
x[95] 0
x[96] 1
x[97] 1
x[98] 0
x[99] 0
x[100] 0
x[101] 1
x[102] 1
x[103] 0.999999953208024
x[104] 1
x[105] 0
x[106] 0
x[107] 0
x[108] 0
x[109] 1
x[110] 9.9999995320802326e-01
x[111] 9.9999995320802293e-01
x[112] 1
x[113] 0
x[114] 0
x[115] 0
x[116] 2.5056132125136123e-07
x[117] 1.0017435219261631e-07
x[118] 1.0000000751501124e+00
x[119] 0
x[120] 0
x[121] 0
x[122] 0
x[123] 1
x[124] 1
x[125] 1
x[126] 1
x[127] 0
x[128] 1
x[129] 1
x[130] 1
x[131] 1
x[132] 0
x[133] 0
x[134] 1
x[135] 1
x[136] 0
x[137] 0
x[138] 1
x[139] 1
x[140] 5.0057058003186083e-08
x[141] 1
x[142] 0
x[143] 0
x[144] 9.9703994915951659e-08
x[145] 0
x[146] 1
x[147] 1
x[148] 0
x[149] 1
x[150] 0
x[151] 0
x[152] 1
x[153] 1
x[154] 0
x[155] 1
x[156] 0
x[157] 1
x[158] 5.0074319808950506e-08
x[159] 0
x[160] 1
x[161] 0
x[162] 0
x[163] 1
x[164] 1
x[165] 1
x[166] 1
x[167] 1
x[168] 1
x[169] 0
x[170] 1.0000000250236385e+00
x[171] 1
x[172] 0
x[173] 0
x[174] 0
x[175] 7.2564719623360876e-08
x[176] 5.0078467133385064e-08
x[177] 1.0000000220799621e+00
x[178] 1
x[179] 0
x[180] 1
x[181] 5.0083557361072558e-08
x[182] 0
x[183] 0
x[184] 1
x[185] 0
x[186] 1
x[187] 2.5054395090683782e-07
x[188] 0
x[189] 0
x[190] 1
x[191] 1
x[192] 1
x[193] 1
x[194] 0
x[195] 7.5080542938802312e-08
x[196] 0
x[197] 0
x[198] 9.9999992481203170e-01
x[199] 1
x[200] 5.0052657114889919e-08
x[201] 1
x[202] 0
x[203] 1
x[204] 1
x[205] 1
x[206] 1
x[207] 0
x[208] 0
x[209] 5.0072577441508289e-08
x[210] 0
x[211] 0
x[212] -2.1799524700479479e-08
x[213] 0
x[214] 1
x[215] 9.9999975140432151e-01
x[216] 1
x[217] 1
x[218] 0
x[219] 1.0000000250235035e+00
x[220] 1
x[221] 0
x[222] 0
x[223] 1
x[224] 0
x[225] 1
x[226] 0
x[227] 0
x[228] 1
x[229] -2.0163678052734979e-08
x[230] 1
x[231] 0
x[232] 0
x[233] 0
x[234] 0
x[235] 1
x[236] 1
x[237] 0
x[238] 1
x[239] 1
x[240] 9.9999999999999933e-01
x[241] 9.9999992814536509e-01
x[242] 1
x[243] 0
x[244] 1
x[245] 4.9959264458541255e-08
x[246] 0
x[247] 0
x[248] 0
x[249] 1
x[250] 1
x[251] 0
x[252] 0
x[253] -7.1854641012609143e-08
x[254] 1
x[255] 0
x[256] 1
x[257] 0
x[258] -2.5062651731744268e-08
x[259] 0
x[260] 1
x[261] 1
x[262] 1.0000000249960312e+00
x[263] 1
x[264] 1
x[265] 1
x[266] 1.00000002498366
x[267] 1
x[268] 1
x[269] 9.9999999999999967e-01
x[270] 0
x[271] 1
x[272] 9.9999992481203170e-01
x[273] 0
x[274] 0
x[275] -5.0125313455495757e-08
x[276] 1
x[277] 0
x[278] 7.5150971335960937e-08
x[279] 0
x[280] 1
x[281] 9.9999997827067844e-01
x[282] 1
x[283] 9.9999992974800733e-01
x[284] 0
x[285] -4.5226329973126513e-08
x[286] 1
x[287] 1
x[288] 0
x[289] 0
x[290] 0
x[291] 1
x[292] 1
x[293] 9.9999995431070743e-01
x[294] 1
x[295] 1
x[296] 5.0120737097101720e-07
x[297] 0
x[298] 0
x[299] 0
x[300] 1
x[301] 0
x[302] 1
x[303] 1
x[304] 1.0000002613399281e+00
x[305] 0
x[306] 1
x[307] 1
x[308] 1
x[309] 9.9999994987469010e-01
x[310] 1
x[311] 0
x[312] 1
x[313] 1
x[314] 0
x[315] 0
x[316] 1
x[317] 1
x[318] 0
x[319] 0
x[320] 1
x[321] 0
x[322] 0
x[323] 1.0000000500765238e+00
x[324] 0
x[325] 5.0117614078026972e-07
x[326] 1
x[327] 0
x[328] 1
x[329] 9.9999997493734172e-01
x[330] 1
x[331] 1
x[332] 0
x[333] 9.9999999999999967e-01
x[334] 1
x[335] 1
x[336] -7.5187974291068826e-08
x[337] 0
x[338] 9.9999973852661017e-01
x[339] 0
x[340] 1
x[341] 0
x[342] 1
x[343] 5.0007859822409380e-08
x[344] 0
x[345] 9.9999997827067855e-01
x[346] 1
x[347] 0
x[348] 1
x[349] 4.9982264397971940e-08
x[350] 5.0066136280268475e-08
x[351] 0
x[352] 1
x[353] 0
x[354] 9.9999995337406888e-01
x[355] 1
x[356] 0
x[357] 0
x[358] 0
x[359] 1.0000000250057830e+00
x[360] 0
x[361] 0
x[362] 0
x[363] 0.999999752772012
x[364] 0
x[365] 1
x[366] 2.5020274931310409e-08
x[367] 1
x[368] 0
x[369] 9.9999987468671658e-01
x[370] 9.9999994987468988e-01
x[371] 0
x[372] 0
x[373] 0
x[374] 1.0000000751162326e+00
x[375] 1
x[376] 0
x[377] 1
x[378] 1
x[379] 1
x[380] 1
x[381] 9.9999992814536509e-01
x[382] 5.0021525476443394e-08
x[383] 5.0071708978774291e-08
x[384] 0
x[385] 9.9999989974938053e-01
x[386] 1
x[387] 9.9999992814536465e-01
x[388] 0
x[389] 1
x[390] 1.0000000250232743e+00
x[391] -2.5062657458649608e-08
x[392] 0
x[393] 0
x[394] 0
x[395] 1
x[396] -5.0125312843465636e-08
x[397] 1
x[398] 1
x[399] 0
x[400] 0
x[401] 9.9999999999999978e-01
x[402] 9.9999992814536676e-01
x[403] 1
x[404] 0
x[405] 0
x[406] 0
x[407] 1
x[408] 0
x[409] 1.0000000250180927e+00
x[410] 0
x[411] 1
x[412] 1
x[413] 0
x[414] 5.0086496403894229e-08
x[415] 1
x[416] 0
x[417] 1
x[418] 0
x[419] 9.9999992814536631e-01
x[420] 1
x[421] 0
x[422] 7.5092976590613537e-08
x[423] -2.5062657458649608e-08
x[424] 0
x[425] 1
x[426] 0
x[427] 0
x[428] 0
x[429] 1
x[430] 9.9999975270677233e-01
x[431] 0
x[432] 0
x[433] 9.9999992981203167e-01
x[434] 4.9200400575113824e-08
x[435] 0
x[436] 9.9999994987469010e-01
x[437] 1
x[438] 7.51092769332652e-08
x[439] 9.9999999999999989e-01
x[440] 0
x[441] 0
x[442] 0
x[443] -2.5062658171037810e-08
x[444] 9.9999992481203170e-01
x[445] 1
x[446] 9.9999992481203348e-01
x[447] 0
x[448] 0
x[449] 1
x[450] -2.5062657511937062e-08
x[451] 9.9999999999999989e-01
x[452] 0
x[453] 1
x[454] 1.0000000250115517e+00
x[455] 0
x[456] 1
x[457] 0
x[458] 1
x[459] 1
x[460] 0
x[461] 0
x[462] 0
x[463] 1
x[464] 0
x[465] 1
x[466] 1
x[467] 0
x[468] 0
x[469] 1
x[470] 1
x[471] 1.0000000249048187e+00
x[472] 0
x[473] 0
x[474] 0
x[475] 5.0022222712366171e-08
x[476] 1
x[477] 0
x[478] 0
x[479] 0
x[480] 0
x[481] -2.5062651731744268e-08
x[482] 1.0000001001975547e+00
x[483] 1.0000000250054895e+00
x[484] 1
x[485] 1
x[486] 0
x[487] 1
x[488] 1
x[489] 5.0004975260589367e-08
x[490] 1
x[491] -2.1672449608081722e-08
x[492] 0
x[493] 0
x[494] 7.5035319919442660e-08
x[495] 1
x[496] 1.0000000249727043e+00
x[497] 1
x[498] 1
x[499] 1
x[500] 0
x[501] 0
x[502] 0
x[503] -4.6791976275498107e-08
x[504] 0
x[505] 0
x[506] -2.5062658406960203e-08
x[507] 1
x[508] 1
x[509] 0
x[510] 0
x[511] 0
x[512] 0
x[513] 1
x[514] -7.18546414018247e-08
x[515] -2.1729324125316274e-08
x[516] 9.9999992711705077e-01
x[517] 1
x[518] 0
x[519] 1
x[520] 5.0081586910202539e-08
x[521] 1
x[522] 1
x[523] 0
x[524] 1.0000000149670341e+00
x[525] 0
x[526] 1
x[527] 0
x[528] 1
x[529] 1
x[530] 1
x[531] 0
x[532] 1
x[533] 0
x[534] 1
x[535] 1
x[536] 1
x[537] 1
x[538] 1
x[539] 1
x[540] -1.2041429832884226e-07
x[541] 0
x[542] 1
x[543] 0
x[544] 1
x[545] 0
x[546] 0
x[547] 0
x[548] 1
x[549] 1
x[550] 0
x[551] 1
x[552] 1
x[553] 0
x[554] 1
x[555] 4.2580998223108659e-07
x[556] 0
x[557] 0
x[558] -2.5062651731744268e-08
x[559] 1
x[560] 1
x[561] 1
x[562] 0
x[563] 2.6051795995026431e-07
x[564] 0
x[565] 1
x[566] 0
x[567] 0
x[568] 1
x[569] 9.9999992814536465e-01
x[570] -2.1729324837704477e-08
x[571] 1
x[572] 0
x[573] 1
x[574] 9.9999950208021138e-01
x[575] 0
x[576] -2.1729324947788803e-08
x[577] 1
x[578] 1
x[579] 1.0000000374864688e+00
x[580] 1
x[581] 0
x[582] 1
x[583] 1
x[584] 0
x[585] 0
x[586] 0
x[587] 0
x[588] 0
x[589] 0.99999994987469
x[590] 1
x[591] 0
x[592] 0
x[593] 1
x[594] 1.0000000500804964e+00
x[595] 5.0058833541613839e-08
x[596] 0
x[597] 1.0000000249873717e+00
x[598] 1
x[599] 9.9999990308271391e-01
x[600] 1
x[601] 0
x[602] 1.0000000750620892e+00
x[603] 0
x[604] 1
x[605] 1
x[606] 1
x[607] 1
x[608] 1
x[609] 0
x[610] 5.0081765285280941e-08
x[611] 1
x[612] 1
x[613] 1
x[614] 9.9999995487468951e-01
x[615] 1
x[616] 0
x[617] 0
x[618] 2.5044591547117825e-07
x[619] 1
x[620] 1
x[621] 1
x[622] 0
x[623] 1
x[624] 1.0000000250239673e+00
x[625] 0
x[626] 9.9999950374687785e-01
x[627] 0
x[628] 0
x[629] 1
x[630] 0
x[631] 1
x[632] 1
x[633] 1
x[634] -1.0025061936147495e-07
x[635] -1.2531328687684083e-08
x[636] 2.4932246614032120e-08
x[637] 1
x[638] 0
x[639] 0
x[640] 0
x[641] 1
x[642] -2.5062651953788873e-08
x[643] 1.0000000249806626e+00
x[644] 9.9999995320802348e-01
x[645] 0
x[646] 0
x[647] 0
x[648] 1
x[649] 1.0000000250181851e+00
x[650] 0
x[651] 0
x[652] 9.9999992991945708e-01
x[653] 0
x[654] 1
x[655] 1.0000000249919918e+00
x[656] 1
x[657] 1
x[658] 1
x[659] 0
x[660] 0
x[661] 0
x[662] 0
x[663] -2.7568921856513379e-07
x[664] 7.4783521513559649e-08
x[665] 1
x[666] 1
x[667] 0
x[668] 1
x[669] 1
x[670] 1
x[671] 0
x[672] -2.0088280729045047e-08
x[673] 1
x[674] 0
x[675] 1
x[676] 0
x[677] 0
x[678] 1
x[679] -2.0163672246177913e-08
x[680] 1
x[681] 1
x[682] -5.0125309458692868e-08
x[683] 1
x[684] 0
x[685] 1
x[686] 1
x[687] 0
x[688] -4.8559663417482146e-08
x[689] 1
x[690] 1
x[691] 0
x[692] 1
x[693] 1
x[694] 9.9999995482051240e-01
x[695] 9.9999987968672155e-01
x[696] 0
x[697] -9.6917293133568967e-08
x[698] 1
x[699] 0
x[700] 1
x[701] 0
x[702] 0
x[703] 0
x[704] 1.0000000499382584e+00
x[705] 0
x[706] 1
x[707] 1
x[708] 0
x[709] -1.4537594114364338e-07
x[710] 0
x[711] 0
x[712] 0
x[713] 9.9999999999999956e-01
x[714] 1
x[715] 1
x[716] 1
x[717] 0
x[718] 0
x[719] 0
x[720] 0
x[721] 0
x[722] 0
x[723] 1
x[724] 1
x[725] 1
x[726] 9.9999999999999944e-01
x[727] 0
x[728] 1
x[729] 1
x[730] 1
x[731] 1.0000000499978983e+00
x[732] 1
x[733] 0
x[734] 1
x[735] 1
x[736] 0
x[737] 1
x[738] 7.5128864181134310e-08
x[739] 1
x[740] 0
x[741] 0
x[742] 0
x[743] 0
x[744] 0
x[745] 1
x[746] 1
x[747] 4.9974315331426680e-08
x[748] 0
x[749] 0
x[750] 1
x[751] 1
x[752] 0
x[753] 1
x[754] 1
x[755] 0
x[756] 1
x[757] 0
x[758] 9.9999989974938053e-01
x[759] 0
x[760] 0
x[761] 1
x[762] 1
x[763] 0
x[764] 1
x[765] 9.9999992980600294e-01
x[766] 0
x[767] 1
x[768] 0
x[769] 0
x[770] 1
x[771] 0
x[772] 1
x[773] 1
x[774] 1
x[775] 1
x[776] 1
x[777] 0
x[778] 1
x[779] 0
x[780] 1
x[781] 0
x[782] -1.0025061906600741e-07
x[783] 1
x[784] 7.5143299602514811e-08
x[785] -2.5062651731744268e-08
x[786] 0
x[787] 0
x[788] 1
x[789] 0
x[790] 2.6131670859597914e-07
x[791] 1
x[792] 0
x[793] 1
x[794] 0
x[795] 5.0085249740840425e-08
x[796] 0
x[797] 1
x[798] 0
x[799] 1
x[800] 0
x[801] -2.5062652134632147e-08
x[802] 0
x[803] 0
x[804] 1
x[805] 0
x[806] 0
x[807] 0
x[808] 1
x[809] 0
x[810] 1
x[811] 0
x[812] 0
x[813] 1
x[814] 0
x[815] 1
x[816] 0
x[817] 9.9999995069737979e-01
x[818] 1
x[819] 1.0000000249913445e+00
x[820] 0
x[821] 0
x[822] 1
x[823] 0
x[824] 1.0000000250216534e+00
x[825] 7.5083630806867909e-08
x[826] 7.5115097155496445e-08
x[827] 0
x[828] -2.5062651953788873e-08
x[829] 0
x[830] 1
x[831] 0
x[832] 7.5078247544743473e-08
x[833] 1
x[834] 0
x[835] 5.0015879450821475e-08
x[836] 1.00000002501061
x[837] 1.0000000500843229e+00
x[838] 0
x[839] 0
x[840] 0
x[841] 1
x[842] 1
x[843] -9.6917293048613958e-08
x[844] 1
x[845] 0
x[846] 1
x[847] 0
x[848] 0
x[849] 9.9999999999999989e-01
x[850] 0
x[851] 9.9999994987470120e-01
x[852] 0
x[853] 1.0000000249901331e+00
x[854] 1.0000001001531280e+00
x[855] 1
x[856] 2.5057867165681376e-07
x[857] 1
x[858] 0
x[859] 1.0000001001983712e+00
x[860] 0
x[861] 9.9999989974938053e-01
x[862] 0
x[863] 0
x[864] 1
x[865] 0
x[866] -2.1729324317612543e-08
x[867] 1
x[868] 9.9999994987468988e-01
x[869] 1
x[870] 0
x[871] 1
x[872] 1
x[873] 1
x[874] 0
x[875] 9.9999975427241838e-01
x[876] 0
x[877] 0
x[878] 0
x[879] 0
x[880] 0
x[881] -2.1729324171570656e-08
x[882] 0
x[883] 1
x[884] 1
x[885] 1
x[886] 0
x[887] 1
x[888] 1.0000000250165784e+00
x[889] 1
x[890] 7.4726438267559011e-08
x[891] 1
x[892] 1
x[893] 7.5115454959987571e-08
x[894] 0
x[895] 1
x[896] 1
x[897] 9.9999994987468988e-01
x[898] 0
x[899] 1
x[900] 1
x[901] 0
x[902] 1
x[903] 0
x[904] 1
x[905] 1
x[906] 0
x[907] 0
x[908] 0
x[909] 0
x[910] 1
x[911] 0
x[912] 1
x[913] 1
x[914] 0
x[915] 1
x[916] 9.9999995112202855e-01
x[917] 1
x[918] 1
x[919] 0
x[920] 7.4755110131489185e-08
x[921] 1
x[922] 0
x[923] 0
x[924] 0
x[925] 1
x[926] 1
x[927] 1
x[928] 0
x[929] 1
x[930] 1
x[931] 0
x[932] 0
x[933] 9.9999995144034726e-01
x[934] 1
x[935] 1
x[936] 4.9895506608330851e-08
x[937] 0
x[938] -2.5062657504903996e-08
x[939] 9.9999992825279038e-01
x[940] 0
x[941] 1
x[942] 1
x[943] 1
x[944] 0
x[945] 0
x[946] 1
x[947] 0
x[948] 1
x[949] 2.61405403224173e-07
x[950] 0
x[951] 0
x[952] 0
x[953] 0
x[954] 1
x[955] 0
x[956] 0
x[957] -5.0125309458692868e-08
x[958] 0
x[959] 1.0000000249962646e+00
x[960] 0
x[961] 0
x[962] 1
x[963] 0
x[964] 0
x[965] 0
x[966] 1
x[967] 1
x[968] 0
x[969] 0
x[970] 0
x[971] 0
x[972] 0
x[973] 1
x[974] 1
x[975] 0
x[976] 0
x[977] 0
x[978] 0
x[979] 9.9999989974938053e-01
x[980] 9.9999994987468344e-01
x[981] 0
x[982] 1
x[983] 0
x[984] 0
x[985] 7.5124510798385862e-08
x[986] 9.9999985462407059e-01
x[987] 0
x[988] 1.0000000250136303e+00
x[989] -3.7593987256556716e-08
x[990] 1.0000000748963906e+00
x[991] 1
x[992] 0
x[993] 1
x[994] 1
x[995] 1
x[996] 1
x[997] 9.9999995178114687e-01
x[998] 9.9999995477366943e-01
x[999] 1
